2
150 2
37
21 1 1
22 1 1
23 1 2
27 1 2
28 1 1
29 1 2
30 1 1
31 1 1
32 1 2
35 1 2
36 1 1
37 1 3
38 1 2
45 1 1
46 1 1
48 1 1
51 1 2
52 1 1
56 1 1
60 1 1
61 1 1
65 1 1
70 1 1
72 1 2
74 1 1
75 1 1
76 1 1
78 1 2
80 1 1
83 1 1
84 1 1
88 1 1
91 1 3
93 1 1
94 1 1
96 1 1
100 1 1
